(declare-const __VERIFIER_assert__cond___16 Int)
(declare-const havoc Int)
(declare-const |__VERIFIER_assert__cond___15':143:161:168:220:227:235| Int)
(declare-const |main____CPAchecker_TMP_0':141:162:169:221:228:236| Int)
(declare-const |havoc:3:58:232| Int)
(declare-const |__tmp_383_0':139:163:170:222:229:237| Int)
(declare-const |K:158:159:166:218:225:233| Int)
(declare-const |main____CPAchecker_TMP_0___0':142:165:172:224:231:239| Int)
(declare-const main____CPAchecker_TMP_0___0 Int)
(declare-const __VERIFIER_assert__cond___15 Int)
(declare-const |main__t':140:160:167:219:226:234| Int)
(declare-const |__VERIFIER_assert__cond___16':144:164:171:223:230:238| Int)
(assert (and (<= (+ (- havoc) 1) 0) (not (= (+ (- havoc) 1) 0))
               (= |havoc:3:58:232| 0)
               (not (= (ite (<= (+ (- havoc) 1) 0) 1 0) 0))
               (or (not (<= (- |K:158:159:166:218:225:233|) 0))
                     (= (+ |main__t':140:160:167:219:226:234|
                             (- |K:158:159:166:218:225:233|)) 0))
               (or (not (and (<= (- |K:158:159:166:218:225:233|) 0)
                               (<= |K:158:159:166:218:225:233| 0)))
                     (= (+ (- __VERIFIER_assert__cond___15)
                             |__VERIFIER_assert__cond___15':143:161:168:220:227:235|) 0))
               (or (not (<= (+ (- |K:158:159:166:218:225:233|) 1) 0))
                     (= (+ |__VERIFIER_assert__cond___15':143:161:168:220:227:235|
                             -1) 0))
               (or (not (and (<= (- |K:158:159:166:218:225:233|) 0)
                               (<= |K:158:159:166:218:225:233| 0)))
                     (= (+ |main____CPAchecker_TMP_0':141:162:169:221:228:236|
                             (- |havoc:3:58:232|)) 0))
               (or (not (<= (+ (- |K:158:159:166:218:225:233|) 1) 0))
                     (= |main____CPAchecker_TMP_0':141:162:169:221:228:236| 0))
               (or (not (and (<= (- |K:158:159:166:218:225:233|) 0)
                               (<= |K:158:159:166:218:225:233| 0)))
                     (= (+ |__tmp_383_0':139:163:170:222:229:237|
                             (- |havoc:3:58:232|)) 0))
               (or (not (<= (+ (- |K:158:159:166:218:225:233|) 1) 0))
                     (= |__tmp_383_0':139:163:170:222:229:237| 0))
               (or (not (and (<= (- |K:158:159:166:218:225:233|) 0)
                               (<= |K:158:159:166:218:225:233| 0)))
                     (= (+ (- __VERIFIER_assert__cond___16)
                             |__VERIFIER_assert__cond___16':144:164:171:223:230:238|) 0))
               (or (not (<= (+ (- |K:158:159:166:218:225:233|) 1) 0))
                     (= (+ |__VERIFIER_assert__cond___16':144:164:171:223:230:238|
                             -1) 0))
               (or (not (and (<= (- |K:158:159:166:218:225:233|) 0)
                               (<= |K:158:159:166:218:225:233| 0)))
                     (= (+ (- main____CPAchecker_TMP_0___0)
                             |main____CPAchecker_TMP_0___0':142:165:172:224:231:239|) 0))
               (or (not (<= (+ (- |K:158:159:166:218:225:233|) 1) 0))
                     (= |main____CPAchecker_TMP_0___0':142:165:172:224:231:239| 0))
               (or (and (= |K:158:159:166:218:225:233| 0)
                          (= (+ __VERIFIER_assert__cond___16
                                  (- |__VERIFIER_assert__cond___16':144:164:171:223:230:238|)) 0)
                          (= (+ __VERIFIER_assert__cond___15
                                  (- |__VERIFIER_assert__cond___15':143:161:168:220:227:235|)) 0)
                          (= (+ main____CPAchecker_TMP_0___0
                                  (- |main____CPAchecker_TMP_0___0':142:165:172:224:231:239|)) 0)
                          (= (+ (- |main____CPAchecker_TMP_0':141:162:169:221:228:236|)
                                  |havoc:3:58:232|) 0)
                          (= (- |main__t':140:160:167:219:226:234|) 0)
                          (= (+ (- |__tmp_383_0':139:163:170:222:229:237|)
                                  |havoc:3:58:232|) 0))
                     (and (<= (+ (- |K:158:159:166:218:225:233|) 1) 0)
                            (= |havoc:3:58:232| 0) (= |havoc:3:58:232| 0)
                            (<= (+ (- havoc) 3) 0)
                            (= (+ |__VERIFIER_assert__cond___16':144:164:171:223:230:238|
                                    -1) 0)
                            (= (+ |__VERIFIER_assert__cond___15':143:161:168:220:227:235|
                                    -1) 0)
                            (= |main____CPAchecker_TMP_0':141:162:169:221:228:236| 0)
                            (= |main____CPAchecker_TMP_0___0':142:165:172:224:231:239| 0)
                            (= |__tmp_383_0':139:163:170:222:229:237| 0)
                            (<= (+ |main__t':140:160:167:219:226:234|
                                     (- havoc) 2) 0)
                            (<= (+ (- |main__t':140:160:167:219:226:234|) 1) 0)))
               (<= (- |K:158:159:166:218:225:233|) 0)
               (= |__tmp_383_0':139:163:170:222:229:237| 0)
               (= |main____CPAchecker_TMP_0':141:162:169:221:228:236| 0)
               (<= (- |main__t':140:160:167:219:226:234|) 0)
               (< (+ (- havoc) 1) 0)
               (= |__tmp_383_0':139:163:170:222:229:237| 0)
               (= |main____CPAchecker_TMP_0':141:162:169:221:228:236| 0)
               (= (+ |main__t':140:160:167:219:226:234| (- havoc) 2) 0)
               (not (= (ite (<= (+ (- |main__t':140:160:167:219:226:234|) -1) 0)
                            1 0) 0))
               (= (ite (<= (+ |main__t':140:160:167:219:226:234| (- havoc) 2) 0)
                       1 0) 0)))
(check-sat)
